result&benchmarks/Data/Ex1/verify/Output/while_infinite_loop_4_process_dc_iter2Output/Counterexample.3.smt2
(set-info :source |printed by MathSAT|)
(declare-fun x@2 () (_ BitVec 32))
(declare-fun x@3 () (_ BitVec 32))
(assert (let ((.def_14 (= x@3 (_ bv1 32))))(let ((.def_11 (= x@2 (_ bv0 32))))(let ((.def_44 (and .def_11 .def_14)))(let ((.def_15 (= x@3 (_ bv0 32))))(let ((.def_18 (not .def_15)))(let ((.def_45 (and .def_18 .def_44))).def_45)))))))