result&benchmarks/Data/Ex1/verify/Output/while_infinite_loop_4_process_dc_iter2Output/Counterexample.3.txt
none:	N36 -{INIT GLOBAL VARS}-> N59
/usr/include/assert.h, lines 69-71:	N59 -{void __assert_fail(const char *__assertion, const char *__file, unsigned int __line, const char *__function);}-> N60
/usr/include/assert.h, lines 74-76:	N60 -{void __assert_perror_fail(int __errnum, const char *__file, unsigned int __line, const char *__function);}-> N61
/usr/include/assert.h, lines 81-82:	N61 -{void __assert(const char *__assertion, const char *__file, int __line);}-> N62
/usr/lib/gcc/x86_64-linux-gnu/11/include/stddef.h, line 209:	N62 -{typedef unsigned long int size_t;}-> N63
/usr/lib/gcc/x86_64-linux-gnu/11/include/stddef.h, line 321:	N63 -{typedef int wchar_t;}-> N64
/usr/include/stdlib.h, lines 59-63:	N64 -{struct __anon_type_div_t {   int quot;   int rem; } ;}-> N65
/usr/include/stdlib.h, lines 59-63:	N65 -{typedef struct __anon_type_div_t div_t;}-> N66
/usr/include/stdlib.h, lines 67-71:	N66 -{struct __anon_type_ldiv_t {   long int quot;   long int rem; } ;}-> N67
/usr/include/stdlib.h, lines 67-71:	N67 -{typedef struct __anon_type_ldiv_t ldiv_t;}-> N68
/usr/include/stdlib.h, lines 77-81:	N68 -{struct __anon_type_lldiv_t {   long long int quot;   long long int rem; } ;}-> N69
/usr/include/stdlib.h, lines 77-81:	N69 -{typedef struct __anon_type_lldiv_t lldiv_t;}-> N70
/usr/include/stdlib.h, line 98:	N70 -{size_t __ctype_get_mb_cur_max();}-> N71
/usr/include/stdlib.h, lines 102-103:	N71 -{double atof(const char *__nptr);}-> N72
/usr/include/stdlib.h, lines 105-106:	N72 -{int atoi(const char *__nptr);}-> N73
/usr/include/stdlib.h, lines 108-109:	N73 -{long int atol(const char *__nptr);}-> N74
/usr/include/stdlib.h, lines 113-114:	N74 -{long long int atoll(const char *__nptr);}-> N75
/usr/include/stdlib.h, lines 118-120:	N75 -{double strtod(const char *__nptr, char **__endptr);}-> N76
/usr/include/stdlib.h, lines 124-125:	N76 -{float strtof(const char *__nptr, char **__endptr);}-> N77
/usr/include/stdlib.h, lines 127-129:	N77 -{long double strtold(const char *__nptr, char **__endptr);}-> N78
/usr/include/stdlib.h, lines 177-179:	N78 -{long int strtol(const char *__nptr, char **__endptr, int __base);}-> N79
/usr/include/stdlib.h, lines 181-183:	N79 -{unsigned long int strtoul(const char *__nptr, char **__endptr, int __base);}-> N80
/usr/include/stdlib.h, lines 188-190:	N80 -{long long int strtoq(const char *__nptr, char **__endptr, int __base);}-> N81
/usr/include/stdlib.h, lines 193-195:	N81 -{unsigned long long int strtouq(const char *__nptr, char **__endptr, int __base);}-> N82
/usr/include/stdlib.h, lines 201-203:	N82 -{long long int strtoll(const char *__nptr, char **__endptr, int __base);}-> N83
/usr/include/stdlib.h, lines 206-208:	N83 -{unsigned long long int strtoull(const char *__nptr, char **__endptr, int __base);}-> N84
/usr/include/stdlib.h, line 386:	N84 -{char *l64a(long int __n);}-> N85
/usr/include/stdlib.h, lines 389-390:	N85 -{long int a64l(const char *__s);}-> N86
/usr/include/x86_64-linux-gnu/bits/types.h, line 31:	N86 -{typedef unsigned char __u_char;}-> N87
/usr/include/x86_64-linux-gnu/bits/types.h, line 32:	N87 -{typedef unsigned short int __u_short;}-> N88
/usr/include/x86_64-linux-gnu/bits/types.h, line 33:	N88 -{typedef unsigned int __u_int;}-> N89
/usr/include/x86_64-linux-gnu/bits/types.h, line 34:	N89 -{typedef unsigned long int __u_long;}-> N90
/usr/include/x86_64-linux-gnu/bits/types.h, line 37:	N90 -{typedef signed char __int8_t;}-> N91
/usr/include/x86_64-linux-gnu/bits/types.h, line 38:	N91 -{typedef unsigned char __uint8_t;}-> N92
/usr/include/x86_64-linux-gnu/bits/types.h, line 39:	N92 -{typedef signed short int __int16_t;}-> N93
/usr/include/x86_64-linux-gnu/bits/types.h, line 40:	N93 -{typedef unsigned short int __uint16_t;}-> N94
/usr/include/x86_64-linux-gnu/bits/types.h, line 41:	N94 -{typedef signed int __int32_t;}-> N95
/usr/include/x86_64-linux-gnu/bits/types.h, line 42:	N95 -{typedef unsigned int __uint32_t;}-> N96
/usr/include/x86_64-linux-gnu/bits/types.h, line 44:	N96 -{typedef signed long int __int64_t;}-> N97
/usr/include/x86_64-linux-gnu/bits/types.h, line 45:	N97 -{typedef unsigned long int __uint64_t;}-> N98
/usr/include/x86_64-linux-gnu/bits/types.h, line 52:	N98 -{typedef __int8_t __int_least8_t;}-> N99
/usr/include/x86_64-linux-gnu/bits/types.h, line 53:	N99 -{typedef __uint8_t __uint_least8_t;}-> N100
/usr/include/x86_64-linux-gnu/bits/types.h, line 54:	N100 -{typedef __int16_t __int_least16_t;}-> N101
/usr/include/x86_64-linux-gnu/bits/types.h, line 55:	N101 -{typedef __uint16_t __uint_least16_t;}-> N102
/usr/include/x86_64-linux-gnu/bits/types.h, line 56:	N102 -{typedef __int32_t __int_least32_t;}-> N103
/usr/include/x86_64-linux-gnu/bits/types.h, line 57:	N103 -{typedef __uint32_t __uint_least32_t;}-> N104
/usr/include/x86_64-linux-gnu/bits/types.h, line 58:	N104 -{typedef __int64_t __int_least64_t;}-> N105
/usr/include/x86_64-linux-gnu/bits/types.h, line 59:	N105 -{typedef __uint64_t __uint_least64_t;}-> N106
/usr/include/x86_64-linux-gnu/bits/types.h, line 63:	N106 -{typedef long int __quad_t;}-> N107
/usr/include/x86_64-linux-gnu/bits/types.h, line 64:	N107 -{typedef unsigned long int __u_quad_t;}-> N108
/usr/include/x86_64-linux-gnu/bits/types.h, line 72:	N108 -{typedef long int __intmax_t;}-> N109
/usr/include/x86_64-linux-gnu/bits/types.h, line 73:	N109 -{typedef unsigned long int __uintmax_t;}-> N110
/usr/include/x86_64-linux-gnu/bits/types.h, line 145:	N110 -{typedef unsigned long int __dev_t;}-> N111
/usr/include/x86_64-linux-gnu/bits/types.h, line 146:	N111 -{typedef unsigned int __uid_t;}-> N112
/usr/include/x86_64-linux-gnu/bits/types.h, line 147:	N112 -{typedef unsigned int __gid_t;}-> N113
/usr/include/x86_64-linux-gnu/bits/types.h, line 148:	N113 -{typedef unsigned long int __ino_t;}-> N114
/usr/include/x86_64-linux-gnu/bits/types.h, line 149:	N114 -{typedef unsigned long int __ino64_t;}-> N115
/usr/include/x86_64-linux-gnu/bits/types.h, line 150:	N115 -{typedef unsigned int __mode_t;}-> N116
/usr/include/x86_64-linux-gnu/bits/types.h, line 151:	N116 -{typedef unsigned long int __nlink_t;}-> N117
/usr/include/x86_64-linux-gnu/bits/types.h, line 152:	N117 -{typedef long int __off_t;}-> N118
/usr/include/x86_64-linux-gnu/bits/types.h, line 153:	N118 -{typedef long int __off64_t;}-> N119
/usr/include/x86_64-linux-gnu/bits/types.h, line 154:	N119 -{typedef int __pid_t;}-> N120
/usr/include/x86_64-linux-gnu/bits/types.h, line 155:	N120 -{struct __anon_type___fsid_t {   int __val[2]; } ;}-> N121
/usr/include/x86_64-linux-gnu/bits/types.h, line 155:	N121 -{typedef struct __anon_type___fsid_t __fsid_t;}-> N122
/usr/include/x86_64-linux-gnu/bits/types.h, line 156:	N122 -{typedef long int __clock_t;}-> N123
/usr/include/x86_64-linux-gnu/bits/types.h, line 157:	N123 -{typedef unsigned long int __rlim_t;}-> N124
/usr/include/x86_64-linux-gnu/bits/types.h, line 158:	N124 -{typedef unsigned long int __rlim64_t;}-> N125
/usr/include/x86_64-linux-gnu/bits/types.h, line 159:	N125 -{typedef unsigned int __id_t;}-> N126
/usr/include/x86_64-linux-gnu/bits/types.h, line 160:	N126 -{typedef long int __time_t;}-> N127
/usr/include/x86_64-linux-gnu/bits/types.h, line 161:	N127 -{typedef unsigned int __useconds_t;}-> N128
/usr/include/x86_64-linux-gnu/bits/types.h, line 162:	N128 -{typedef long int __suseconds_t;}-> N129
/usr/include/x86_64-linux-gnu/bits/types.h, line 163:	N129 -{typedef long int __suseconds64_t;}-> N130
/usr/include/x86_64-linux-gnu/bits/types.h, line 165:	N130 -{typedef int __daddr_t;}-> N131
/usr/include/x86_64-linux-gnu/bits/types.h, line 166:	N131 -{typedef int __key_t;}-> N132
/usr/include/x86_64-linux-gnu/bits/types.h, line 169:	N132 -{typedef int __clockid_t;}-> N133
/usr/include/x86_64-linux-gnu/bits/types.h, line 172:	N133 -{typedef void *__timer_t;}-> N134
/usr/include/x86_64-linux-gnu/bits/types.h, line 175:	N134 -{typedef long int __blksize_t;}-> N135
/usr/include/x86_64-linux-gnu/bits/types.h, line 180:	N135 -{typedef long int __blkcnt_t;}-> N136
/usr/include/x86_64-linux-gnu/bits/types.h, line 181:	N136 -{typedef long int __blkcnt64_t;}-> N137
/usr/include/x86_64-linux-gnu/bits/types.h, line 184:	N137 -{typedef unsigned long int __fsblkcnt_t;}-> N138
/usr/include/x86_64-linux-gnu/bits/types.h, line 185:	N138 -{typedef unsigned long int __fsblkcnt64_t;}-> N139
/usr/include/x86_64-linux-gnu/bits/types.h, line 188:	N139 -{typedef unsigned long int __fsfilcnt_t;}-> N140
/usr/include/x86_64-linux-gnu/bits/types.h, line 189:	N140 -{typedef unsigned long int __fsfilcnt64_t;}-> N141
/usr/include/x86_64-linux-gnu/bits/types.h, line 192:	N141 -{typedef long int __fsword_t;}-> N142
/usr/include/x86_64-linux-gnu/bits/types.h, line 194:	N142 -{typedef long int __ssize_t;}-> N143
/usr/include/x86_64-linux-gnu/bits/types.h, line 197:	N143 -{typedef long int __syscall_slong_t;}-> N144
/usr/include/x86_64-linux-gnu/bits/types.h, line 199:	N144 -{typedef unsigned long int __syscall_ulong_t;}-> N145
/usr/include/x86_64-linux-gnu/bits/types.h, line 203:	N145 -{typedef __off64_t __loff_t;}-> N146
/usr/include/x86_64-linux-gnu/bits/types.h, line 204:	N146 -{typedef char *__caddr_t;}-> N147
/usr/include/x86_64-linux-gnu/bits/types.h, line 207:	N147 -{typedef long int __intptr_t;}-> N148
/usr/include/x86_64-linux-gnu/bits/types.h, line 210:	N148 -{typedef unsigned int __socklen_t;}-> N149
/usr/include/x86_64-linux-gnu/bits/types.h, line 215:	N149 -{typedef int __sig_atomic_t;}-> N150
/usr/include/x86_64-linux-gnu/sys/types.h, line 33:	N150 -{typedef __u_char u_char;}-> N151
/usr/include/x86_64-linux-gnu/sys/types.h, line 34:	N151 -{typedef __u_short u_short;}-> N152
/usr/include/x86_64-linux-gnu/sys/types.h, line 35:	N152 -{typedef __u_int u_int;}-> N153
/usr/include/x86_64-linux-gnu/sys/types.h, line 36:	N153 -{typedef __u_long u_long;}-> N154
/usr/include/x86_64-linux-gnu/sys/types.h, line 37:	N154 -{typedef __quad_t quad_t;}-> N155
/usr/include/x86_64-linux-gnu/sys/types.h, line 38:	N155 -{typedef __u_quad_t u_quad_t;}-> N156
/usr/include/x86_64-linux-gnu/sys/types.h, line 39:	N156 -{typedef __fsid_t fsid_t;}-> N157
/usr/include/x86_64-linux-gnu/sys/types.h, line 42:	N157 -{typedef __loff_t loff_t;}-> N158
/usr/include/x86_64-linux-gnu/sys/types.h, line 47:	N158 -{typedef __ino_t ino_t;}-> N159
/usr/include/x86_64-linux-gnu/sys/types.h, line 59:	N159 -{typedef __dev_t dev_t;}-> N160
/usr/include/x86_64-linux-gnu/sys/types.h, line 64:	N160 -{typedef __gid_t gid_t;}-> N161
/usr/include/x86_64-linux-gnu/sys/types.h, line 69:	N161 -{typedef __mode_t mode_t;}-> N162
/usr/include/x86_64-linux-gnu/sys/types.h, line 74:	N162 -{typedef __nlink_t nlink_t;}-> N163
/usr/include/x86_64-linux-gnu/sys/types.h, line 79:	N163 -{typedef __uid_t uid_t;}-> N164
/usr/include/x86_64-linux-gnu/sys/types.h, line 85:	N164 -{typedef __off_t off_t;}-> N165
/usr/include/x86_64-linux-gnu/sys/types.h, line 97:	N165 -{typedef __pid_t pid_t;}-> N166
/usr/include/x86_64-linux-gnu/sys/types.h, line 103:	N166 -{typedef __id_t id_t;}-> N167
/usr/include/x86_64-linux-gnu/sys/types.h, line 108:	N167 -{typedef __ssize_t ssize_t;}-> N168
/usr/include/x86_64-linux-gnu/sys/types.h, line 114:	N168 -{typedef __daddr_t daddr_t;}-> N169
/usr/include/x86_64-linux-gnu/sys/types.h, line 115:	N169 -{typedef __caddr_t caddr_t;}-> N170
/usr/include/x86_64-linux-gnu/sys/types.h, line 121:	N170 -{typedef __key_t key_t;}-> N171
/usr/include/x86_64-linux-gnu/bits/types/clock_t.h, line 7:	N171 -{typedef __clock_t clock_t;}-> N172
/usr/include/x86_64-linux-gnu/bits/types/clockid_t.h, line 7:	N172 -{typedef __clockid_t clockid_t;}-> N173
/usr/include/x86_64-linux-gnu/bits/types/time_t.h, line 10:	N173 -{typedef __time_t time_t;}-> N174
/usr/include/x86_64-linux-gnu/bits/types/timer_t.h, line 7:	N174 -{typedef __timer_t timer_t;}-> N175
/usr/include/x86_64-linux-gnu/sys/types.h, line 148:	N175 -{typedef unsigned long int ulong;}-> N176
/usr/include/x86_64-linux-gnu/sys/types.h, line 149:	N176 -{typedef unsigned short int ushort;}-> N177
/usr/include/x86_64-linux-gnu/sys/types.h, line 150:	N177 -{typedef unsigned int uint;}-> N178
/usr/include/x86_64-linux-gnu/bits/stdint-intn.h, line 24:	N178 -{typedef __int8_t int8_t;}-> N179
/usr/include/x86_64-linux-gnu/bits/stdint-intn.h, line 25:	N179 -{typedef __int16_t int16_t;}-> N180
/usr/include/x86_64-linux-gnu/bits/stdint-intn.h, line 26:	N180 -{typedef __int32_t int32_t;}-> N181
/usr/include/x86_64-linux-gnu/bits/stdint-intn.h, line 27:	N181 -{typedef __int64_t int64_t;}-> N182
/usr/include/x86_64-linux-gnu/sys/types.h, line 158:	N182 -{typedef __uint8_t u_int8_t;}-> N183
/usr/include/x86_64-linux-gnu/sys/types.h, line 159:	N183 -{typedef __uint16_t u_int16_t;}-> N184
/usr/include/x86_64-linux-gnu/sys/types.h, line 160:	N184 -{typedef __uint32_t u_int32_t;}-> N185
/usr/include/x86_64-linux-gnu/sys/types.h, line 161:	N185 -{typedef __uint64_t u_int64_t;}-> N186
/usr/include/x86_64-linux-gnu/sys/types.h, line 164:	N186 -{typedef signed int register_t;}-> N187
/usr/include/x86_64-linux-gnu/bits/byteswap.h, lines 33-41:	N187 -{__uint16_t __bswap_16(__uint16_t __bsx);}-> N188
/usr/include/x86_64-linux-gnu/bits/byteswap.h, lines 48-56:	N188 -{__uint32_t __bswap_32(__uint32_t __bsx);}-> N189
/usr/include/x86_64-linux-gnu/bits/byteswap.h, lines 69-77:	N189 -{__uint64_t __bswap_64(__uint64_t __bsx);}-> N190
/usr/include/x86_64-linux-gnu/bits/uintn-identity.h, lines 32-36:	N190 -{__uint16_t __uint16_identity(__uint16_t __x);}-> N191
/usr/include/x86_64-linux-gnu/bits/uintn-identity.h, lines 38-42:	N191 -{__uint32_t __uint32_identity(__uint32_t __x);}-> N192
/usr/include/x86_64-linux-gnu/bits/uintn-identity.h, lines 44-48:	N192 -{__uint64_t __uint64_identity(__uint64_t __x);}-> N193
/usr/include/x86_64-linux-gnu/bits/types/__sigset_t.h, lines 5-8:	N193 -{struct __anon_type___sigset_t {   unsigned long int __val[32UL]; } ;}-> N194
/usr/include/x86_64-linux-gnu/bits/types/__sigset_t.h, lines 5-8:	N194 -{typedef struct __anon_type___sigset_t __sigset_t;}-> N195
/usr/include/x86_64-linux-gnu/bits/types/sigset_t.h, line 7:	N195 -{typedef __sigset_t sigset_t;}-> N196
/usr/include/x86_64-linux-gnu/bits/types/struct_timeval.h, lines 8-17:	N196 -{struct timeval {   __time_t tv_sec;   __suseconds_t tv_usec; } ;}-> N197
/usr/include/x86_64-linux-gnu/bits/types/struct_timespec.h, lines 11-31:	N197 -{struct timespec {   __time_t tv_sec;   __syscall_slong_t tv_nsec; } ;}-> N198
/usr/include/x86_64-linux-gnu/sys/select.h, line 43:	N198 -{typedef __suseconds_t suseconds_t;}-> N199
/usr/include/x86_64-linux-gnu/sys/select.h, line 49:	N199 -{typedef long int __fd_mask;}-> N200
/usr/include/x86_64-linux-gnu/sys/select.h, lines 59-70:	N200 -{struct __anon_type_fd_set {   __fd_mask __fds_bits[32]; } ;}-> N201
/usr/include/x86_64-linux-gnu/sys/select.h, lines 59-70:	N201 -{typedef struct __anon_type_fd_set fd_set;}-> N202
/usr/include/x86_64-linux-gnu/sys/select.h, line 77:	N202 -{typedef __fd_mask fd_mask;}-> N203
/usr/include/x86_64-linux-gnu/sys/select.h, lines 102-105:	N203 -{int select(int __nfds, fd_set *__readfds, fd_set *__writefds, fd_set *__exceptfds, struct timeval *__timeout);}-> N204
/usr/include/x86_64-linux-gnu/sys/select.h, lines 127-131:	N204 -{int pselect(int __nfds, fd_set *__readfds, fd_set *__writefds, fd_set *__exceptfds, const struct timespec *__timeout, const __sigset_t *__sigmask);}-> N205
/usr/include/x86_64-linux-gnu/sys/types.h, line 185:	N205 -{typedef __blksize_t blksize_t;}-> N206
/usr/include/x86_64-linux-gnu/sys/types.h, line 192:	N206 -{typedef __blkcnt_t blkcnt_t;}-> N207
/usr/include/x86_64-linux-gnu/sys/types.h, line 196:	N207 -{typedef __fsblkcnt_t fsblkcnt_t;}-> N208
/usr/include/x86_64-linux-gnu/sys/types.h, line 200:	N208 -{typedef __fsfilcnt_t fsfilcnt_t;}-> N209
/usr/include/x86_64-linux-gnu/bits/atomic_wide_counter.h, lines 28-32:	N209 -{struct __anon_type_0 {   unsigned int __low;   unsigned int __high; } ;}-> N210
/usr/include/x86_64-linux-gnu/bits/atomic_wide_counter.h, lines 25-33:	N210 -{union __anon_type___atomic_wide_counter {   unsigned long long int __value64;   struct __anon_type_0 __value32; } ;}-> N211
/usr/include/x86_64-linux-gnu/bits/atomic_wide_counter.h, lines 25-33:	N211 -{typedef union __anon_type___atomic_wide_counter __atomic_wide_counter;}-> N212
/usr/include/x86_64-linux-gnu/bits/thread-shared-types.h, lines 51-55:	N212 -{struct __pthread_internal_list {   struct __pthread_internal_list *__prev;   struct __pthread_internal_list *__next; } ;}-> N213
/usr/include/x86_64-linux-gnu/bits/thread-shared-types.h, lines 51-55:	N213 -{typedef struct __pthread_internal_list __pthread_list_t;}-> N214
/usr/include/x86_64-linux-gnu/bits/thread-shared-types.h, lines 57-60:	N214 -{struct __pthread_internal_slist {   struct __pthread_internal_slist *__next; } ;}-> N215
/usr/include/x86_64-linux-gnu/bits/thread-shared-types.h, lines 57-60:	N215 -{typedef struct __pthread_internal_slist __pthread_slist_t;}-> N216
/usr/include/x86_64-linux-gnu/bits/struct_mutex.h, lines 22-53:	N216 -{struct __pthread_mutex_s {   int __lock;   unsigned int __count;   int __owner;   unsigned int __nusers;   int __kind;   short __spins;   short __elision;   __pthread_list_t __list; } ;}-> N217
/usr/include/x86_64-linux-gnu/bits/struct_rwlock.h, lines 23-55:	N217 -{struct __pthread_rwlock_arch_t {   unsigned int __readers;   unsigned int __writers;   unsigned int __wrphase_futex;   unsigned int __writers_futex;   unsigned int __pad3;   unsigned int __pad4;   int __cur_writer;   int __shared;   signed char __rwelision;   unsigned char __pad1[7];   unsigned long int __pad2;   unsigned int __flags; } ;}-> N218
/usr/include/x86_64-linux-gnu/bits/thread-shared-types.h, lines 94-103:	N218 -{struct __pthread_cond_s {   __atomic_wide_counter __wseq;   __atomic_wide_counter __g1_start;   unsigned int __g_refs[2];   unsigned int __g_size[2];   unsigned int __g1_orig_size;   unsigned int __wrefs;   unsigned int __g_signals[2]; } ;}-> N219
/usr/include/x86_64-linux-gnu/bits/thread-shared-types.h, line 105:	N219 -{typedef unsigned int __tss_t;}-> N220
/usr/include/x86_64-linux-gnu/bits/thread-shared-types.h, line 106:	N220 -{typedef unsigned long int __thrd_t;}-> N221
/usr/include/x86_64-linux-gnu/bits/thread-shared-types.h, lines 108-111:	N221 -{struct __anon_type___once_flag {   int __data; } ;}-> N222
/usr/include/x86_64-linux-gnu/bits/thread-shared-types.h, lines 108-111:	N222 -{typedef struct __anon_type___once_flag __once_flag;}-> N223
/usr/include/x86_64-linux-gnu/bits/pthreadtypes.h, line 27:	N223 -{typedef unsigned long int pthread_t;}-> N224
/usr/include/x86_64-linux-gnu/bits/pthreadtypes.h, lines 32-36:	N224 -{union __anon_type_pthread_mutexattr_t {   char __size[4];   int __align; } ;}-> N225
/usr/include/x86_64-linux-gnu/bits/pthreadtypes.h, lines 32-36:	N225 -{typedef union __anon_type_pthread_mutexattr_t pthread_mutexattr_t;}-> N226
/usr/include/x86_64-linux-gnu/bits/pthreadtypes.h, lines 41-45:	N226 -{union __anon_type_pthread_condattr_t {   char __size[4];   int __align; } ;}-> N227
/usr/include/x86_64-linux-gnu/bits/pthreadtypes.h, lines 41-45:	N227 -{typedef union __anon_type_pthread_mutexattr_t pthread_condattr_t;}-> N228
/usr/include/x86_64-linux-gnu/bits/pthreadtypes.h, line 49:	N228 -{typedef unsigned int pthread_key_t;}-> N229
/usr/include/x86_64-linux-gnu/bits/pthreadtypes.h, line 53:	N229 -{typedef int pthread_once_t;}-> N230
/usr/include/x86_64-linux-gnu/bits/pthreadtypes.h, lines 56-60:	N230 -{union pthread_attr_t {   char __size[56];   long int __align; } ;}-> N231
/usr/include/x86_64-linux-gnu/bits/pthreadtypes.h, line 62:	N231 -{typedef union pthread_attr_t pthread_attr_t;}-> N232
/usr/include/x86_64-linux-gnu/bits/pthreadtypes.h, lines 67-72:	N232 -{union __anon_type_pthread_mutex_t {   struct __pthread_mutex_s __data;   char __size[40];   long int __align; } ;}-> N233
/usr/include/x86_64-linux-gnu/bits/pthreadtypes.h, lines 67-72:	N233 -{typedef union __anon_type_pthread_mutex_t pthread_mutex_t;}-> N234
/usr/include/x86_64-linux-gnu/bits/pthreadtypes.h, lines 75-80:	N234 -{union __anon_type_pthread_cond_t {   struct __pthread_cond_s __data;   char __size[48];   long long int __align; } ;}-> N235
/usr/include/x86_64-linux-gnu/bits/pthreadtypes.h, lines 75-80:	N235 -{typedef union __anon_type_pthread_cond_t pthread_cond_t;}-> N236
/usr/include/x86_64-linux-gnu/bits/pthreadtypes.h, lines 86-91:	N236 -{union __anon_type_pthread_rwlock_t {   struct __pthread_rwlock_arch_t __data;   char __size[56];   long int __align; } ;}-> N237
/usr/include/x86_64-linux-gnu/bits/pthreadtypes.h, lines 86-91:	N237 -{typedef union __anon_type_pthread_rwlock_t pthread_rwlock_t;}-> N238
/usr/include/x86_64-linux-gnu/bits/pthreadtypes.h, lines 93-97:	N238 -{union __anon_type_pthread_rwlockattr_t {   char __size[8];   long int __align; } ;}-> N239
/usr/include/x86_64-linux-gnu/bits/pthreadtypes.h, lines 93-97:	N239 -{typedef union __anon_type_pthread_rwlockattr_t pthread_rwlockattr_t;}-> N240
/usr/include/x86_64-linux-gnu/bits/pthreadtypes.h, line 103:	N240 -{typedef volatile int pthread_spinlock_t;}-> N241
/usr/include/x86_64-linux-gnu/bits/pthreadtypes.h, lines 108-112:	N241 -{union __anon_type_pthread_barrier_t {   char __size[32];   long int __align; } ;}-> N242
/usr/include/x86_64-linux-gnu/bits/pthreadtypes.h, lines 108-112:	N242 -{typedef union __anon_type_pthread_barrier_t pthread_barrier_t;}-> N243
/usr/include/x86_64-linux-gnu/bits/pthreadtypes.h, lines 114-118:	N243 -{union __anon_type_pthread_barrierattr_t {   char __size[4];   int __align; } ;}-> N244
/usr/include/x86_64-linux-gnu/bits/pthreadtypes.h, lines 114-118:	N244 -{typedef union __anon_type_pthread_mutexattr_t pthread_barrierattr_t;}-> N245
/usr/include/stdlib.h, line 402:	N245 -{long int random();}-> N246
/usr/include/stdlib.h, line 405:	N246 -{void srandom(unsigned int __seed);}-> N247
/usr/include/stdlib.h, lines 411-412:	N247 -{char *initstate(unsigned int __seed, char *__statebuf, size_t __statelen);}-> N248
/usr/include/stdlib.h, line 416:	N248 -{char *setstate(char *__statebuf);}-> N249
/usr/include/stdlib.h, lines 424-433:	N249 -{struct random_data {   int32_t *fptr;   int32_t *rptr;   int32_t *state;   int rand_type;   int rand_deg;   int rand_sep;   int32_t *end_ptr; } ;}-> N250
/usr/include/stdlib.h, lines 435-436:	N250 -{int random_r(struct random_data *__buf, int32_t *__result);}-> N251
/usr/include/stdlib.h, lines 438-439:	N251 -{int srandom_r(unsigned int __seed, struct random_data *__buf);}-> N252
/usr/include/stdlib.h, lines 441-444:	N252 -{int initstate_r(unsigned int __seed, char *__statebuf, size_t __statelen, struct random_data *__buf);}-> N253
/usr/include/stdlib.h, lines 446-448:	N253 -{int setstate_r(char *__statebuf, struct random_data *__buf);}-> N254
/usr/include/stdlib.h, line 454:	N254 -{int rand();}-> N255
/usr/include/stdlib.h, line 456:	N255 -{void srand(unsigned int __seed);}-> N256
/usr/include/stdlib.h, line 460:	N256 -{int rand_r(unsigned int *__seed);}-> N257
/usr/include/stdlib.h, line 468:	N257 -{double drand48();}-> N258
/usr/include/stdlib.h, line 469:	N258 -{double erand48(unsigned short int __xsubi[3]);}-> N259
/usr/include/stdlib.h, line 472:	N259 -{long int lrand48();}-> N260
/usr/include/stdlib.h, lines 473-474:	N260 -{long int nrand48(unsigned short int __xsubi[3]);}-> N261
/usr/include/stdlib.h, line 477:	N261 -{long int mrand48();}-> N262
/usr/include/stdlib.h, lines 478-479:	N262 -{long int jrand48(unsigned short int __xsubi[3]);}-> N263
/usr/include/stdlib.h, line 482:	N263 -{void srand48(long int __seedval);}-> N264
/usr/include/stdlib.h, lines 483-484:	N264 -{unsigned short int *seed48(unsigned short int __seed16v[3]);}-> N265
/usr/include/stdlib.h, line 485:	N265 -{void lcong48(unsigned short int __param[7]);}-> N266
/usr/include/stdlib.h, lines 491-499:	N266 -{struct drand48_data {   unsigned short int __x[3];   unsigned short int __old_x[3];   unsigned short int __c;   unsigned short int __init;   unsigned long long int __a; } ;}-> N267
/usr/include/stdlib.h, lines 502-503:	N267 -{int drand48_r(struct drand48_data *__buffer, double *__result);}-> N268
/usr/include/stdlib.h, lines 504-506:	N268 -{int erand48_r(unsigned short int __xsubi[3], struct drand48_data *__buffer, double *__result);}-> N269
/usr/include/stdlib.h, lines 509-511:	N269 -{int lrand48_r(struct drand48_data *__buffer, long int *__result);}-> N270
/usr/include/stdlib.h, lines 512-515:	N270 -{int nrand48_r(unsigned short int __xsubi[3], struct drand48_data *__buffer, long int *__result);}-> N271
/usr/include/stdlib.h, lines 518-520:	N271 -{int mrand48_r(struct drand48_data *__buffer, long int *__result);}-> N272
/usr/include/stdlib.h, lines 521-524:	N272 -{int jrand48_r(unsigned short int __xsubi[3], struct drand48_data *__buffer, long int *__result);}-> N273
/usr/include/stdlib.h, lines 527-528:	N273 -{int srand48_r(long int __seedval, struct drand48_data *__buffer);}-> N274
/usr/include/stdlib.h, lines 530-531:	N274 -{int seed48_r(unsigned short int __seed16v[3], struct drand48_data *__buffer);}-> N275
/usr/include/stdlib.h, lines 533-535:	N275 -{int lcong48_r(unsigned short int __param[7], struct drand48_data *__buffer);}-> N276
/usr/include/stdlib.h, lines 540-541:	N276 -{void *malloc(size_t __size);}-> N277
/usr/include/stdlib.h, lines 543-544:	N277 -{void *calloc(size_t __nmemb, size_t __size);}-> N278
/usr/include/stdlib.h, lines 551-552:	N278 -{void *realloc(void *__ptr, size_t __size);}-> N279
/usr/include/stdlib.h, line 555:	N279 -{void free(void *__ptr);}-> N280
/usr/include/stdlib.h, lines 563-566:	N280 -{void *reallocarray(void *__ptr, size_t __nmemb, size_t __size);}-> N281
/usr/include/alloca.h, line 32:	N281 -{void *alloca(size_t __size);}-> N282
/usr/include/stdlib.h, lines 580-581:	N282 -{void *valloc(size_t __size);}-> N283
/usr/include/stdlib.h, lines 586-587:	N283 -{int posix_memalign(void **__memptr, size_t __alignment, size_t __size);}-> N284
/usr/include/stdlib.h, lines 592-594:	N284 -{void *aligned_alloc(size_t __alignment, size_t __size);}-> N285
/usr/include/stdlib.h, line 598:	N285 -{void abort();}-> N286
/usr/include/stdlib.h, line 602:	N286 -{int atexit(void (*__func)());}-> N287
/usr/include/stdlib.h, line 610:	N287 -{int at_quick_exit(void (*__func)());}-> N288
/usr/include/stdlib.h, lines 617-618:	N288 -{int on_exit(void (*__func)(int __status, void *__arg), void *__arg);}-> N289
/usr/include/stdlib.h, line 624:	N289 -{void exit(int __status);}-> N290
/usr/include/stdlib.h, line 630:	N290 -{void quick_exit(int __status);}-> N291
/usr/include/stdlib.h, line 636:	N291 -{void _Exit(int __status);}-> N292
/usr/include/stdlib.h, line 641:	N292 -{char *getenv(const char *__name);}-> N293
/usr/include/stdlib.h, line 654:	N293 -{int putenv(char *__string);}-> N294
/usr/include/stdlib.h, lines 660-661:	N294 -{int setenv(const char *__name, const char *__value, int __replace);}-> N295
/usr/include/stdlib.h, line 664:	N295 -{int unsetenv(const char *__name);}-> N296
/usr/include/stdlib.h, line 671:	N296 -{int clearenv();}-> N297
/usr/include/stdlib.h, line 682:	N297 -{char *mktemp(char *__template);}-> N298
/usr/include/stdlib.h, line 695:	N298 -{int mkstemp(char *__template);}-> N299
/usr/include/stdlib.h, line 717:	N299 -{int mkstemps(char *__template, int __suffixlen);}-> N300
/usr/include/stdlib.h, line 738:	N300 -{char *mkdtemp(char *__template);}-> N301
/usr/include/stdlib.h, line 791:	N301 -{int system(const char *__command);}-> N302
/usr/include/stdlib.h, lines 808-809:	N302 -{char *realpath(const char *__name, char *__resolved);}-> N303
/usr/include/stdlib.h, line 816:	N303 -{typedef int (*__compar_fn_t)(const void *, const void *);}-> N304
/usr/include/stdlib.h, lines 828-830:	N304 -{void *bsearch(const void *__key, const void *__base, size_t __nmemb, size_t __size, __compar_fn_t __compar);}-> N305
/usr/include/stdlib.h, lines 838-839:	N305 -{void qsort(void *__base, size_t __nmemb, size_t __size, __compar_fn_t __compar);}-> N306
/usr/include/stdlib.h, line 848:	N306 -{int abs(int __x);}-> N307
/usr/include/stdlib.h, line 849:	N307 -{long int labs(long int __x);}-> N308
/usr/include/stdlib.h, lines 852-853:	N308 -{long long int llabs(long long int __x);}-> N309
/usr/include/stdlib.h, lines 860-861:	N309 -{div_t div(int __numer, int __denom);}-> N310
/usr/include/stdlib.h, lines 862-863:	N310 -{ldiv_t ldiv(long int __numer, long int __denom);}-> N311
/usr/include/stdlib.h, lines 866-868:	N311 -{lldiv_t lldiv(long long int __numer, long long int __denom);}-> N312
/usr/include/stdlib.h, lines 880-881:	N312 -{char *ecvt(double __value, int __ndigit, int *__decpt, int *__sign);}-> N313
/usr/include/stdlib.h, lines 886-887:	N313 -{char *fcvt(double __value, int __ndigit, int *__decpt, int *__sign);}-> N314
/usr/include/stdlib.h, lines 892-893:	N314 -{char *gcvt(double __value, int __ndigit, char *__buf);}-> N315
/usr/include/stdlib.h, lines 898-900:	N315 -{char *qecvt(long double __value, int __ndigit, int *__decpt, int *__sign);}-> N316
/usr/include/stdlib.h, lines 901-903:	N316 -{char *qfcvt(long double __value, int __ndigit, int *__decpt, int *__sign);}-> N317
/usr/include/stdlib.h, lines 904-905:	N317 -{char *qgcvt(long double __value, int __ndigit, char *__buf);}-> N318
/usr/include/stdlib.h, lines 910-912:	N318 -{int ecvt_r(double __value, int __ndigit, int *__decpt, int *__sign, char *__buf, size_t __len);}-> N319
/usr/include/stdlib.h, lines 913-915:	N319 -{int fcvt_r(double __value, int __ndigit, int *__decpt, int *__sign, char *__buf, size_t __len);}-> N320
/usr/include/stdlib.h, lines 917-920:	N320 -{int qecvt_r(long double __value, int __ndigit, int *__decpt, int *__sign, char *__buf, size_t __len);}-> N321
/usr/include/stdlib.h, lines 921-924:	N321 -{int qfcvt_r(long double __value, int __ndigit, int *__decpt, int *__sign, char *__buf, size_t __len);}-> N322
/usr/include/stdlib.h, line 930:	N322 -{int mblen(const char *__s, size_t __n);}-> N323
/usr/include/stdlib.h, lines 933-934:	N323 -{int mbtowc(wchar_t *__pwc, const char *__s, size_t __n);}-> N324
/usr/include/stdlib.h, line 937:	N324 -{int wctomb(char *__s, wchar_t __wchar);}-> N325
/usr/include/stdlib.h, lines 941-943:	N325 -{size_t mbstowcs(wchar_t *__pwcs, const char *__s, size_t __n);}-> N326
/usr/include/stdlib.h, lines 945-949:	N326 -{size_t wcstombs(char *__s, const wchar_t *__pwcs, size_t __n);}-> N327
/usr/include/stdlib.h, line 956:	N327 -{int rpmatch(const char *__response);}-> N328
/usr/include/stdlib.h, lines 967-970:	N328 -{int getsubopt(char **__optionp, char * const *__tokens, char **__valuep);}-> N329
/usr/include/stdlib.h, lines 1013-1014:	N329 -{int getloadavg(double __loadavg[], int __nelem);}-> N330
line 5:	N330 -{int x = 0;}-> N331
	x == 0;
lines 8-11:	N331 -{void eval();}-> N332
lines 14-22:	N332 -{int main();}-> N333
lines 25-27:	N333 -{void custom_assert_func();}-> N334
none:	N334 -{Function start dummy edge}-> N37
	x == 0;
line 15:	N37 -{do}-> N41
line 16:	N41 -{eval()}-> N31
none:	N31 -{Function start dummy edge}-> N32
line 9:	N32 -{x = 1;}-> N33
	x == 1;
line 10:	N33 -{return;}-> N30
line 16:	N30 -{Return edge from eval to main: eval();}-> N42
none:	N42 -{}-> N38
lines 15-17:	N38 -{[!(x == 0)]}-> N40
	x == 1;
	x == 1;
line 19:	N40 -{int __CPAchecker_TMP_2;}-> N43
line 19:	N43 -{}-> N45
line 19:	N45 -{__CPAchecker_TMP_2 = 0;}-> N47
line 19:	N47 -{4UL;}-> N48
line 19:	N48 -{}-> N51
line 19:	N51 -{__assert_fail("0 && \"Assertion failed: Infinite loop detected\"", "/home/zyl/biVerify/CPA_DATA2/C/F/llmfix/realOutput/iterationTry/while_infinite_loop_4_process_dc_iter2.c", 19, "__PRETTY_FUNCTION__");}-> N336
